solution status: optimal solution found
objective value:                                   14
$_61_y                                             13 	(obj:0)
$_61_z                                             19 	(obj:0)
$_184_y                                            18 	(obj:0)
$_184_z                                            19 	(obj:0)
$_102_y                                            20 	(obj:0)
$_102_z                                            21 	(obj:0)
$_39_y                                             15 	(obj:0)
$_39_z                                             22 	(obj:0)
$_13_y                                             24 	(obj:0)
$_13_z                                             21 	(obj:0)
$_29_y                                             15 	(obj:0)
$_29_z                                             21 	(obj:0)
$_116_y                                            16 	(obj:0)
$_116_z                                            22 	(obj:0)
$_79_y                                             16 	(obj:0)
$_79_z                                             21 	(obj:0)
$_85_y                                             18 	(obj:0)
$_85_z                                             22 	(obj:0)
$_157_y                                            20 	(obj:0)
$_157_z                                            18 	(obj:0)
$_11_y                                             16 	(obj:0)
$_11_z                                             17 	(obj:0)
$_16_y                                             17 	(obj:0)
$_16_z                                             22 	(obj:0)
$_106_y                                            19 	(obj:0)
$_106_z                                            21 	(obj:0)
$_140_y                                            24 	(obj:0)
$_140_z                                            20 	(obj:0)
$_51_y                                             17 	(obj:0)
$_51_z                                             17 	(obj:0)
$_180_y                                            19 	(obj:0)
$_180_z                                            25 	(obj:0)
$_58_y                                             21 	(obj:0)
$_58_z                                             23 	(obj:0)
$_32_y                                             20 	(obj:0)
$_32_z                                             23 	(obj:0)
$_150_y                                            19 	(obj:0)
$_150_z                                            20 	(obj:0)
$_65_y                                             21 	(obj:0)
$_65_z                                             24 	(obj:0)
$_14_y                                             22 	(obj:0)
$_14_z                                             21 	(obj:0)
$_173_y                                            20 	(obj:0)
$_173_z                                            20 	(obj:0)
$_97_y                                             16 	(obj:0)
$_97_z                                             23 	(obj:0)
$_80_y                                             18 	(obj:0)
$_80_z                                             25 	(obj:0)
$_36_y                                             20 	(obj:0)
$_36_z                                             17 	(obj:0)
$_15_y                                             21 	(obj:0)
$_15_z                                             18 	(obj:0)
$_54_y                                             19 	(obj:0)
$_54_z                                             23 	(obj:0)
$_50_y                                             18 	(obj:0)
$_50_z                                             21 	(obj:0)
$_81_y                                             23 	(obj:0)
$_81_z                                             20 	(obj:0)
$_160_y                                            18 	(obj:0)
$_160_z                                            20 	(obj:0)
$_176_y                                            19 	(obj:0)
$_176_z                                            24 	(obj:0)
$_101_y                                            20 	(obj:0)
$_101_z                                            24 	(obj:0)
$_28_y                                             14 	(obj:0)
$_28_z                                             21 	(obj:0)
$_144_y                                            18 	(obj:0)
$_144_z                                            23 	(obj:0)
$_43_y                                             22 	(obj:0)
$_43_z                                             22 	(obj:0)
$_141_y                                            22 	(obj:0)
$_141_z                                            20 	(obj:0)
$_166_y                                            17 	(obj:0)
$_166_z                                            21 	(obj:0)
$_133_y                                            18 	(obj:0)
$_133_z                                            24 	(obj:0)
x82                                                 2 	(obj:1)
x97                                                 2 	(obj:1)
x110                                                1 	(obj:1)
x148                                                2 	(obj:1)
x158                                                2 	(obj:1)
x164                                                1 	(obj:1)
x165                                                2 	(obj:1)
x167                                                2 	(obj:1)
